n= 4
m= 30
1000
2000
2500
3000
232	4	2
405	10	5
533	4	4
422	12	3
56	21	7
79	8	2
575	9	3
563	1	1
426	18	6
298	7	7
570	15	5
33	12	6
434	12	3
563	24	6
167	16	4
352	18	6
582	3	3
280	12	3
507	6	3
93	28	7
408	24	6
145	7	7
323	16	4
85	16	4
395	12	4
29	6	6
139	9	3
377	9	3
68	8	4
352	4	4
